43
328 260 296 
260 303 277 
491 367 289 
271 448 251 
295 351 313 
402 268 
255 253 250 
406 389 292 
250 414 
257 372 375 
259 259 465 
250 325 259 
396 275 252 
427 317 493 
279 283 265 
308 485 250 
298 262 311 
303 266 347 
398 491 
256 380 
353 368 331 
338 424 
498 444 303 
403 393 383 
311 429 282 
294 372 308 
483 365 
336 296 353 
252 316 389 
421 363 496 
432 289 330 
335 357 260 
399 268 265 
265 253 254 
365 322 363 
329 433 324 
262 268 
340 421 
366 363 
251 276 392 
254 408 280 
251 328 316 
381 259 295 
